NAME: I1241-n26-k6
COMMENT : (Fake et al, No of trucks: 6, Optimal value: )
TYPE : CVRP
DIMENSION : 26
EDGE_WEIGHT_TYPE : EUC_2D
CAPACITY : 32
NODE_COORD_SECTION
1 749 182
2 592 253
3 580 206
4 313 180
5 243 29
6 619 736
7 408 978
8 898 506
9 871 637
10 476 511
11 119 174
12 770 107
13 689 625
14 73 97
15 537 886
16 530 250
17 569 907
18 106 464
19 611 407
20 392 948
21 257 197
22 786 683
23 5 283
24 83 726
25 168 761
26 201 513
DEMAND_SECTION
1 0
2 9
3 7
4 6
5 2
6 8
7 1
8 6
9 6
10 7
11 5
12 10
13 8
14 4
15 9
16 9
17 10
18 6
19 7
20 2
21 2
22 7
23 8
24 10
25 4
26 5
DEPOT_SECTION
 1
 -1
 EOF 